language ESSENCE' 1.0

letting seq_ExplicitBounded_Length be 24
letting seq_ExplicitBounded_Values be
        [1, 2, 1, 3, 2, 8, 9, 3, 10, 11, 12, 5, 7, 4, 8, 6, 9, 5, 4, 10, 7, 11, 6, 12; int(1..24)]
